(set-logic QF_FP)
(set-info :source |Random FP created by PyMPF|)
(set-info :category random)
(set-info :status unsat)
(declare-const x Float32)
(assert (= x (fp #b1 #b00001010 #b11001111001101011001110)))
(declare-const y Float32)
(assert (= y (fp #b1 #b01010100 #b01001110101100100100011)))
(declare-const z Float32)
(assert (= z ((_ to_fp 8 24) #x007FFFFF)))
(declare-const result Float32)
(assert (= result (fp.fma RTZ x y z)))
(assert (not (= result ((_ to_fp 8 24) #x007FFFFF))))
(check-sat)
(exit)
